InboundTrucks  = 40;
OutboundTrucks = 20;
InboundDoors   = 6;
OutboundDoors  = 6;
ReleaseTime    = [81,14,3,94,35,31,28,17,94,13,86,94,114,69,11,75,54,4,3,11,27,29,64,77,3,71,25,91,83,89,69,53,28,57,75,35,103,111,0,97];
UnloadTime     = [20,37,31,27,19,23,31,16,15,34,16,32,32,26,12,39,44,17,34,15,45,28,33,22,14,12,24,28,15,24,16,34,27,39,33,20,33,32,23,27];
LoadTime       = [27,26,25,7,24,25,10,22,28,12,10,19,17,13,25,27,22,12,26,15];
TransferTime   = [| 0,0,12,0,0,46,0,0,0,0,0,0,0,45,0,0,0,0,0,0 | 41,13,0,20,0,0,34,0,0,0,0,0,0,44,0,0,0,0,10,0 | 0,0,0,16,0,0,0,0,20,0,0,0,30,0,33,0,0,0,46,0 | 41,0,0,0,40,0,43,0,0,44,0,0,0,0,0,0,0,0,14,0 | 0,24,50,14,0,0,25,0,0,0,0,0,28,40,0,16,29,0,0,0 | 16,31,0,22,38,21,0,14,0,0,0,44,0,0,0,0,41,0,0,0 | 10,0,0,0,0,0,0,0,0,0,28,13,0,0,0,47,0,0,0,42 | 21,14,0,17,0,0,0,15,0,0,0,0,30,35,29,0,0,0,49,0 | 0,23,0,32,0,0,0,44,0,0,0,0,45,0,0,0,17,0,0,28 | 0,0,50,0,0,0,0,50,0,35,18,0,0,0,0,0,14,0,0,12 | 0,0,18,33,0,0,0,0,25,0,0,0,0,0,0,0,20,0,0,0 | 31,0,0,0,0,20,0,12,0,39,0,0,0,22,0,0,27,0,0,0 | 0,0,26,26,48,0,0,0,0,0,0,0,0,0,44,0,0,0,37,31 | 0,0,29,0,0,0,0,0,34,0,50,0,0,0,28,47,0,0,0,0 | 0,0,0,0,0,0,0,0,25,0,22,12,40,0,0,0,0,0,0,0 | 0,10,0,0,0,0,43,0,0,0,18,0,0,0,0,0,0,0,0,0 | 0,0,0,0,0,0,50,0,0,0,38,28,31,0,0,24,0,23,36,0 | 0,36,0,0,0,46,0,32,0,0,0,0,0,0,0,0,0,0,0,0 | 0,0,0,0,0,0,0,0,0,0,37,39,26,39,30,0,0,0,0,0 | 0,0,0,32,14,0,0,0,0,11,0,40,0,0,26,0,48,0,0,0 | 29,11,0,0,39,0,0,47,0,0,29,0,0,46,0,0,0,0,12,0 | 0,0,33,0,0,0,0,0,0,0,0,18,0,0,0,0,0,0,38,39 | 0,0,0,0,0,0,0,0,0,0,0,0,0,25,0,0,0,0,0,0 | 0,24,0,47,0,0,0,0,0,0,0,0,22,0,0,0,0,40,0,0 | 0,0,0,0,0,0,0,0,12,0,0,0,41,10,0,0,0,13,0,0 | 14,0,50,0,46,0,25,36,0,0,43,0,0,0,0,0,0,16,0,23 | 22,25,14,36,0,0,0,28,0,0,0,0,0,0,0,0,0,0,0,0 | 0,20,0,0,0,0,0,0,0,0,0,0,0,0,0,0,0,24,0,0 | 0,0,0,0,0,21,0,0,0,47,0,0,0,0,0,0,20,30,0,0 | 0,0,0,0,0,0,0,0,0,0,0,0,0,33,0,0,0,27,0,0 | 0,0,50,0,20,0,36,17,0,19,0,0,0,0,0,0,45,22,0,0 | 0,0,0,0,0,0,0,0,0,0,0,0,0,44,0,0,40,0,0,21 | 0,34,36,40,0,0,22,0,0,0,0,42,0,12,38,39,19,0,0,40 | 0,0,0,0,31,0,0,0,0,0,0,14,14,28,0,0,0,50,0,20 | 0,0,13,0,0,43,0,42,21,34,0,47,39,0,0,0,0,0,0,0 | 32,0,0,0,0,0,0,0,0,34,0,0,0,0,0,0,0,0,0,0 | 48,0,0,0,0,32,22,0,0,0,0,0,0,0,0,0,0,0,0,28 | 0,0,44,0,0,0,0,40,0,0,0,12,0,24,0,0,0,0,0,0 | 0,44,33,0,0,0,0,0,24,0,0,0,0,0,0,0,0,0,0,12 | 0,0,0,44,39,0,0,0,0,0,0,0,0,0,0,0,0,0,38,0 |];
